p cnf 7230 15
1212 1373 -1862 0
1210 1370 -1860 0
-1212 -1863 0
-1210 -1861 0
1862 1863 0
1860 1861 0
-1857 1859 0
1858 -1859 0
1856 -1858 0
-1458 1857 0
1458 -1856 0
-1373 -1863 0
-1370 -1861 0
-1854 1855 0
1854 -1855 0
